c Arquivo convertido de bfw782b.mtx
p edge 782 2600
e 1 2
e 1 9
e 1 200
e 1 204
e 2 3
e 2 9
e 2 11
e 2 202
e 2 207
e 2 211
e 3 4
e 3 11
e 3 13
e 3 209
e 3 214
e 3 218
e 4 5
e 4 13
e 4 15
e 4 216
e 4 221
e 4 225
e 5 6
e 5 15
e 5 17
e 5 223
e 5 228
e 5 232
e 6 17
e 6 19
e 6 230
e 6 235
e 6 239
e 7 8
e 7 21
e 7 201
e 7 245
e 8 10
e 8 21
e 8 22
e 8 196
e 8 208
e 8 244
e 8 247
e 8 251
e 9 11
e 9 23
e 9 197
e 9 205
e 9 209
e 9 248
e 9 252
e 10 12
e 10 22
e 10 24
e 10 203
e 10 215
e 10 249
e 10 253
e 10 257
e 11 13
e 11 23
e 11 25
e 11 204
e 11 212
e 11 216
e 11 250
e 11 254
e 11 258
e 12 14
e 12 24
e 12 26
e 12 210
e 12 222
e 12 255
e 12 259
e 12 263
e 13 15
e 13 25
e 13 27
e 13 211
e 13 219
e 13 223
e 13 256
e 13 260
e 13 264
e 14 16
e 14 26
e 14 28
e 14 217
e 14 229
e 14 261
e 14 265
e 14 269
e 15 17
e 15 27
e 15 29
e 15 218
e 15 226
e 15 230
e 15 262
e 15 266
e 15 270
e 16 18
e 16 28
e 16 30
e 16 224
e 16 236
e 16 267
e 16 271
e 16 275
e 17 19
e 17 29
e 17 31
e 17 225
e 17 233
e 17 237
e 17 268
e 17 272
e 17 276
e 18 20
e 18 30
e 18 32
e 18 231
e 18 243
e 18 273
e 18 277
e 18 281
e 19 31
e 19 33
e 19 232
e 19 240
e 19 274
e 19 278
e 19 282
e 20 32
e 20 34
e 20 238
e 20 279
e 20 283
e 21 22
e 21 35
e 21 199
e 21 249
e 21 287
e 22 24
e 22 35
e 22 36
e 22 206
e 22 245
e 22 255
e 22 286
e 22 289
e 22 293
e 23 25
e 23 37
e 23 207
e 23 246
e 23 256
e 23 290
e 23 294
e 24 26
e 24 36
e 24 38
e 24 213
e 24 251
e 24 261
e 24 291
e 24 295
e 24 299
e 25 27
e 25 37
e 25 39
e 25 214
e 25 252
e 25 262
e 25 292
e 25 296
e 25 300
e 26 28
e 26 38
e 26 40
e 26 220
e 26 257
e 26 267
e 26 297
e 26 301
e 26 305
e 27 29
e 27 39
e 27 41
e 27 221
e 27 258
e 27 268
e 27 298
e 27 302
e 27 306
e 28 30
e 28 40
e 28 42
e 28 227
e 28 263
e 28 273
e 28 303
e 28 307
e 28 311
e 29 31
e 29 41
e 29 43
e 29 228
e 29 264
e 29 274
e 29 304
e 29 308
e 29 312
e 30 32
e 30 42
e 30 44
e 30 234
e 30 269
e 30 279
e 30 309
e 30 313
e 30 317
e 31 33
e 31 43
e 31 45
e 31 235
e 31 270
e 31 280
e 31 310
e 31 314
e 31 318
e 32 34
e 32 44
e 32 46
e 32 241
e 32 275
e 32 285
e 32 315
e 32 319
e 32 323
e 33 45
e 33 47
e 33 242
e 33 276
e 33 316
e 33 320
e 33 324
e 34 46
e 34 48
e 34 281
e 34 321
e 34 325
e 35 36
e 35 49
e 35 247
e 35 291
e 35 329
e 36 38
e 36 49
e 36 50
e 36 253
e 36 287
e 36 297
e 36 328
e 36 331
e 36 335
e 37 39
e 37 51
e 37 254
e 37 288
e 37 298
e 37 332
e 37 336
e 38 40
e 38 50
e 38 52
e 38 259
e 38 293
e 38 303
e 38 333
e 38 337
e 38 341
e 39 41
e 39 51
e 39 53
e 39 260
e 39 294
e 39 304
e 39 334
e 39 338
e 39 342
e 40 42
e 40 52
e 40 54
e 40 265
e 40 299
e 40 309
e 40 339
e 40 343
e 40 347
e 41 43
e 41 53
e 41 55
e 41 266
e 41 300
e 41 310
e 41 340
e 41 344
e 41 348
e 42 44
e 42 54
e 42 56
e 42 271
e 42 305
e 42 315
e 42 345
e 42 349
e 42 353
e 43 45
e 43 55
e 43 57
e 43 272
e 43 306
e 43 316
e 43 346
e 43 350
e 43 354
e 44 46
e 44 56
e 44 58
e 44 277
e 44 311
e 44 321
e 44 351
e 44 355
e 44 359
e 45 47
e 45 57
e 45 59
e 45 278
e 45 312
e 45 322
e 45 352
e 45 356
e 45 360
e 46 48
e 46 58
e 46 60
e 46 283
e 46 317
e 46 327
e 46 357
e 46 361
e 46 365
e 47 59
e 47 61
e 47 284
e 47 318
e 47 358
e 47 362
e 47 366
e 48 60
e 48 62
e 48 323
e 48 363
e 48 367
e 49 50
e 49 63
e 49 289
e 49 333
e 49 371
e 50 52
e 50 63
e 50 64
e 50 295
e 50 329
e 50 339
e 50 370
e 50 373
e 50 377
e 51 53
e 51 65
e 51 296
e 51 330
e 51 340
e 51 374
e 51 378
e 52 54
e 52 64
e 52 66
e 52 301
e 52 335
e 52 345
e 52 375
e 52 379
e 52 383
e 53 55
e 53 65
e 53 67
e 53 302
e 53 336
e 53 346
e 53 376
e 53 380
e 53 384
e 54 56
e 54 66
e 54 68
e 54 307
e 54 341
e 54 351
e 54 381
e 54 385
e 54 389
e 55 57
e 55 67
e 55 69
e 55 308
e 55 342
e 55 352
e 55 382
e 55 386
e 55 390
e 56 58
e 56 68
e 56 70
e 56 313
e 56 347
e 56 357
e 56 387
e 56 391
e 56 395
e 57 59
e 57 69
e 57 71
e 57 314
e 57 348
e 57 358
e 57 388
e 57 392
e 57 396
e 58 60
e 58 70
e 58 72
e 58 319
e 58 353
e 58 363
e 58 393
e 58 397
e 58 401
e 59 61
e 59 71
e 59 73
e 59 320
e 59 354
e 59 364
e 59 394
e 59 398
e 59 402
e 60 62
e 60 72
e 60 74
e 60 325
e 60 359
e 60 369
e 60 399
e 60 403
e 60 407
e 61 73
e 61 75
e 61 326
e 61 360
e 61 400
e 61 404
e 61 408
e 62 74
e 62 76
e 62 365
e 62 405
e 62 409
e 63 64
e 63 77
e 63 331
e 63 375
e 63 413
e 64 66
e 64 77
e 64 78
e 64 337
e 64 371
e 64 381
e 64 412
e 64 415
e 64 419
e 65 67
e 65 79
e 65 338
e 65 372
e 65 382
e 65 416
e 65 420
e 66 68
e 66 78
e 66 80
e 66 343
e 66 377
e 66 387
e 66 417
e 66 421
e 66 425
e 67 69
e 67 79
e 67 81
e 67 344
e 67 378
e 67 388
e 67 418
e 67 422
e 67 426
e 68 70
e 68 80
e 68 82
e 68 349
e 68 383
e 68 393
e 68 423
e 68 427
e 68 431
e 69 71
e 69 81
e 69 83
e 69 350
e 69 384
e 69 394
e 69 424
e 69 428
e 69 432
e 70 72
e 70 82
e 70 84
e 70 355
e 70 389
e 70 399
e 70 429
e 70 433
e 70 437
e 71 73
e 71 83
e 71 85
e 71 356
e 71 390
e 71 400
e 71 430
e 71 434
e 71 438
e 72 74
e 72 84
e 72 86
e 72 361
e 72 395
e 72 405
e 72 435
e 72 439
e 72 443
e 73 75
e 73 85
e 73 87
e 73 362
e 73 396
e 73 406
e 73 436
e 73 440
e 73 444
e 74 76
e 74 86
e 74 88
e 74 367
e 74 401
e 74 411
e 74 441
e 74 445
e 74 449
e 75 87
e 75 89
e 75 368
e 75 402
e 75 442
e 75 446
e 75 450
e 76 88
e 76 90
e 76 407
e 76 447
e 76 451
e 77 78
e 77 91
e 77 373
e 77 417
e 77 455
e 78 80
e 78 91
e 78 92
e 78 379
e 78 413
e 78 423
e 78 454
e 78 457
e 78 461
e 79 81
e 79 93
e 79 380
e 79 414
e 79 424
e 79 458
e 79 462
e 80 82
e 80 92
e 80 94
e 80 385
e 80 419
e 80 429
e 80 459
e 80 463
e 80 467
e 81 83
e 81 93
e 81 95
e 81 386
e 81 420
e 81 430
e 81 460
e 81 464
e 81 468
e 82 84
e 82 94
e 82 96
e 82 391
e 82 425
e 82 435
e 82 465
e 82 469
e 82 473
e 83 85
e 83 95
e 83 97
e 83 392
e 83 426
e 83 436
e 83 466
e 83 470
e 83 474
e 84 86
e 84 96
e 84 98
e 84 397
e 84 431
e 84 441
e 84 471
e 84 475
e 84 479
e 85 87
e 85 97
e 85 99
e 85 398
e 85 432
e 85 442
e 85 472
e 85 476
e 85 480
e 86 88
e 86 98
e 86 100
e 86 403
e 86 437
e 86 447
e 86 477
e 86 481
e 86 485
e 87 89
e 87 99
e 87 101
e 87 404
e 87 438
e 87 448
e 87 478
e 87 482
e 87 486
e 88 90
e 88 100
e 88 102
e 88 409
e 88 443
e 88 453
e 88 483
e 88 487
e 88 491
e 89 101
e 89 103
e 89 410
e 89 444
e 89 484
e 89 488
e 89 492
e 90 102
e 90 104
e 90 449
e 90 489
e 90 493
e 91 92
e 91 105
e 91 415
e 91 459
e 91 497
e 92 94
e 92 105
e 92 106
e 92 421
e 92 455
e 92 465
e 92 496
e 92 499
e 92 503
e 93 95
e 93 107
e 93 422
e 93 456
e 93 466
e 93 500
e 93 504
e 94 96
e 94 106
e 94 108
e 94 427
e 94 461
e 94 471
e 94 501
e 94 505
e 94 509
e 95 97
e 95 107
e 95 109
e 95 428
e 95 462
e 95 472
e 95 502
e 95 506
e 95 510
e 96 98
e 96 108
e 96 110
e 96 433
e 96 467
e 96 477
e 96 507
e 96 511
e 96 515
e 97 99
e 97 109
e 97 111
e 97 434
e 97 468
e 97 478
e 97 508
e 97 512
e 97 516
e 98 100
e 98 110
e 98 112
e 98 439
e 98 473
e 98 483
e 98 513
e 98 517
e 98 521
e 99 101
e 99 111
e 99 113
e 99 440
e 99 474
e 99 484
e 99 514
e 99 518
e 99 522
e 100 102
e 100 112
e 100 114
e 100 445
e 100 479
e 100 489
e 100 519
e 100 523
e 100 527
e 101 103
e 101 113
e 101 115
e 101 446
e 101 480
e 101 490
e 101 520
e 101 524
e 101 528
e 102 104
e 102 114
e 102 116
e 102 451
e 102 485
e 102 495
e 102 525
e 102 529
e 102 533
e 103 115
e 103 117
e 103 452
e 103 486
e 103 526
e 103 530
e 103 534
e 104 116
e 104 118
e 104 491
e 104 531
e 104 535
e 105 106
e 105 119
e 105 457
e 105 501
e 105 539
e 106 108
e 106 119
e 106 120
e 106 463
e 106 497
e 106 507
e 106 538
e 106 541
e 106 545
e 107 109
e 107 121
e 107 464
e 107 498
e 107 508
e 107 542
e 107 546
e 108 110
e 108 120
e 108 122
e 108 469
e 108 503
e 108 513
e 108 543
e 108 547
e 108 551
e 109 111
e 109 121
e 109 123
e 109 470
e 109 504
e 109 514
e 109 544
e 109 548
e 109 552
e 110 112
e 110 122
e 110 124
e 110 475
e 110 509
e 110 519
e 110 549
e 110 553
e 110 557
e 111 113
e 111 123
e 111 125
e 111 476
e 111 510
e 111 520
e 111 550
e 111 554
e 111 558
e 112 114
e 112 124
e 112 126
e 112 481
e 112 515
e 112 525
e 112 555
e 112 559
e 112 563
e 113 115
e 113 125
e 113 127
e 113 482
e 113 516
e 113 526
e 113 556
e 113 560
e 113 564
e 114 116
e 114 126
e 114 128
e 114 487
e 114 521
e 114 531
e 114 561
e 114 565
e 114 569
e 115 117
e 115 127
e 115 129
e 115 488
e 115 522
e 115 532
e 115 562
e 115 566
e 115 570
e 116 118
e 116 128
e 116 130
e 116 493
e 116 527
e 116 537
e 116 567
e 116 571
e 116 575
e 117 129
e 117 131
e 117 494
e 117 528
e 117 568
e 117 572
e 117 576
e 118 130
e 118 132
e 118 533
e 118 573
e 118 577
e 119 120
e 119 133
e 119 499
e 119 543
e 119 581
e 120 122
e 120 133
e 120 134
e 120 505
e 120 539
e 120 549
e 120 580
e 120 583
e 120 587
e 121 123
e 121 135
e 121 506
e 121 540
e 121 550
e 121 584
e 121 588
e 122 124
e 122 134
e 122 136
e 122 511
e 122 545
e 122 555
e 122 585
e 122 589
e 122 593
e 123 125
e 123 135
e 123 137
e 123 512
e 123 546
e 123 556
e 123 586
e 123 590
e 123 594
e 124 126
e 124 136
e 124 138
e 124 517
e 124 551
e 124 561
e 124 591
e 124 595
e 124 599
e 125 127
e 125 137
e 125 139
e 125 518
e 125 552
e 125 562
e 125 592
e 125 596
e 125 600
e 126 128
e 126 138
e 126 140
e 126 523
e 126 557
e 126 567
e 126 597
e 126 601
e 126 605
e 127 129
e 127 139
e 127 141
e 127 524
e 127 558
e 127 568
e 127 598
e 127 602
e 127 606
e 128 130
e 128 140
e 128 142
e 128 529
e 128 563
e 128 573
e 128 603
e 128 607
e 128 611
e 129 131
e 129 141
e 129 143
e 129 530
e 129 564
e 129 574
e 129 604
e 129 608
e 129 612
e 130 132
e 130 142
e 130 144
e 130 535
e 130 569
e 130 579
e 130 609
e 130 613
e 130 617
e 131 143
e 131 145
e 131 536
e 131 570
e 131 610
e 131 614
e 131 618
e 132 144
e 132 146
e 132 575
e 132 615
e 132 619
e 133 134
e 133 147
e 133 541
e 133 585
e 133 623
e 134 136
e 134 147
e 134 148
e 134 547
e 134 581
e 134 591
e 134 622
e 134 625
e 134 629
e 135 137
e 135 149
e 135 548
e 135 582
e 135 592
e 135 626
e 135 630
e 136 138
e 136 148
e 136 150
e 136 553
e 136 587
e 136 597
e 136 627
e 136 631
e 136 635
e 137 139
e 137 149
e 137 151
e 137 554
e 137 588
e 137 598
e 137 628
e 137 632
e 137 636
e 138 140
e 138 150
e 138 152
e 138 559
e 138 593
e 138 603
e 138 633
e 138 637
e 138 641
e 139 141
e 139 151
e 139 153
e 139 560
e 139 594
e 139 604
e 139 634
e 139 638
e 139 642
e 140 142
e 140 152
e 140 154
e 140 565
e 140 599
e 140 609
e 140 639
e 140 643
e 140 647
e 141 143
e 141 153
e 141 155
e 141 566
e 141 600
e 141 610
e 141 640
e 141 644
e 141 648
e 142 144
e 142 154
e 142 156
e 142 571
e 142 605
e 142 615
e 142 645
e 142 649
e 142 653
e 143 145
e 143 155
e 143 157
e 143 572
e 143 606
e 143 616
e 143 646
e 143 650
e 143 654
e 144 146
e 144 156
e 144 158
e 144 577
e 144 611
e 144 621
e 144 651
e 144 655
e 144 659
e 145 157
e 145 159
e 145 578
e 145 612
e 145 652
e 145 656
e 145 660
e 146 158
e 146 160
e 146 617
e 146 657
e 146 661
e 147 148
e 147 161
e 147 583
e 147 627
e 147 665
e 148 150
e 148 161
e 148 162
e 148 589
e 148 623
e 148 633
e 148 664
e 148 667
e 148 671
e 149 151
e 149 163
e 149 590
e 149 624
e 149 634
e 149 668
e 149 672
e 150 152
e 150 162
e 150 164
e 150 595
e 150 629
e 150 639
e 150 669
e 150 673
e 150 677
e 151 153
e 151 163
e 151 165
e 151 596
e 151 630
e 151 640
e 151 670
e 151 674
e 151 678
e 152 154
e 152 164
e 152 166
e 152 601
e 152 635
e 152 645
e 152 675
e 152 679
e 152 683
e 153 155
e 153 165
e 153 167
e 153 602
e 153 636
e 153 646
e 153 676
e 153 680
e 153 684
e 154 156
e 154 166
e 154 168
e 154 607
e 154 641
e 154 651
e 154 681
e 154 685
e 154 689
e 155 157
e 155 167
e 155 169
e 155 608
e 155 642
e 155 652
e 155 682
e 155 686
e 155 690
e 156 158
e 156 168
e 156 170
e 156 613
e 156 647
e 156 657
e 156 687
e 156 691
e 156 695
e 157 159
e 157 169
e 157 171
e 157 614
e 157 648
e 157 658
e 157 688
e 157 692
e 157 696
e 158 160
e 158 170
e 158 172
e 158 619
e 158 653
e 158 663
e 158 693
e 158 697
e 158 701
e 159 171
e 159 173
e 159 620
e 159 654
e 159 694
e 159 698
e 159 702
e 160 172
e 160 174
e 160 659
e 160 699
e 160 703
e 161 162
e 161 175
e 161 625
e 161 669
e 161 707
e 162 164
e 162 175
e 162 176
e 162 631
e 162 665
e 162 675
e 162 706
e 162 709
e 162 713
e 163 165
e 163 177
e 163 632
e 163 666
e 163 676
e 163 710
e 163 714
e 164 166
e 164 176
e 164 178
e 164 637
e 164 671
e 164 681
e 164 711
e 164 715
e 164 719
e 165 167
e 165 177
e 165 179
e 165 638
e 165 672
e 165 682
e 165 712
e 165 716
e 165 720
e 166 168
e 166 178
e 166 180
e 166 643
e 166 677
e 166 687
e 166 717
e 166 721
e 166 725
e 167 169
e 167 179
e 167 181
e 167 644
e 167 678
e 167 688
e 167 718
e 167 722
e 167 726
e 168 170
e 168 180
e 168 182
e 168 649
e 168 683
e 168 693
e 168 723
e 168 727
e 168 731
e 169 171
e 169 181
e 169 183
e 169 650
e 169 684
e 169 694
e 169 724
e 169 728
e 169 732
e 170 172
e 170 182
e 170 184
e 170 655
e 170 689
e 170 699
e 170 729
e 170 733
e 170 737
e 171 173
e 171 183
e 171 185
e 171 656
e 171 690
e 171 700
e 171 730
e 171 734
e 171 738
e 172 174
e 172 184
e 172 186
e 172 661
e 172 695
e 172 705
e 172 735
e 172 739
e 172 743
e 173 185
e 173 187
e 173 662
e 173 696
e 173 736
e 173 740
e 173 744
e 174 186
e 174 188
e 174 701
e 174 741
e 174 745
e 175 176
e 175 667
e 175 711
e 175 749
e 176 178
e 176 673
e 176 707
e 176 717
e 176 748
e 176 754
e 177 179
e 177 189
e 177 674
e 177 708
e 177 718
e 177 751
e 177 755
e 178 180
e 178 679
e 178 713
e 178 723
e 178 752
e 178 759
e 179 181
e 179 189
e 179 190
e 179 680
e 179 714
e 179 724
e 179 753
e 179 756
e 179 760
e 180 182
e 180 685
e 180 719
e 180 729
e 180 757
e 180 764
e 181 183
e 181 190
e 181 191
e 181 686
e 181 720
e 181 730
e 181 758
e 181 761
e 181 765
e 182 184
e 182 691
e 182 725
e 182 735
e 182 762
e 182 769
e 183 185
e 183 191
e 183 192
e 183 692
e 183 726
e 183 736
e 183 763
e 183 766
e 183 770
e 184 186
e 184 697
e 184 731
e 184 741
e 184 767
e 184 774
e 185 187
e 185 192
e 185 193
e 185 698
e 185 732
e 185 742
e 185 768
e 185 771
e 185 775
e 186 188
e 186 703
e 186 737
e 186 747
e 186 772
e 186 779
e 187 193
e 187 194
e 187 704
e 187 738
e 187 773
e 187 776
e 187 780
e 188 743
e 188 777
e 189 190
e 189 716
e 189 750
e 189 758
e 190 191
e 190 722
e 190 755
e 190 763
e 191 192
e 191 728
e 191 760
e 191 768
e 192 193
e 192 734
e 192 765
e 192 773
e 193 194
e 193 740
e 193 770
e 193 778
e 194 746
e 194 775
e 195 196
e 196 199
e 196 201
e 197 198
e 197 200
e 197 202
e 199 201
e 199 244
e 199 245
e 200 202
e 200 246
e 201 203
e 202 204
e 202 205
e 203 206
e 203 208
e 204 205
e 204 207
e 204 209
e 206 208
e 206 249
e 206 251
e 207 209
e 207 250
e 207 252
e 208 210
e 209 211
e 209 212
e 210 213
e 210 215
e 211 212
e 211 214
e 211 216
e 213 215
e 213 255
e 213 257
e 214 216
e 214 256
e 214 258
e 215 217
e 216 218
e 216 219
e 217 220
e 217 222
e 218 219
e 218 221
e 218 223
e 220 222
e 220 261
e 220 263
e 221 223
e 221 262
e 221 264
e 222 224
e 223 225
e 223 226
e 224 227
e 224 229
e 225 226
e 225 228
e 225 230
e 227 229
e 227 267
e 227 269
e 228 230
e 228 268
e 228 270
e 229 231
e 230 232
e 230 233
e 231 234
e 231 236
e 232 233
e 232 235
e 232 237
e 234 236
e 234 273
e 234 275
e 235 237
e 235 274
e 235 276
e 236 238
e 237 239
e 237 240
e 238 241
e 238 243
e 239 240
e 239 242
e 241 243
e 241 279
e 241 281
e 242 280
e 242 282
e 244 245
e 245 247
e 245 249
e 246 248
e 246 250
e 247 249
e 247 286
e 247 287
e 248 250
e 248 288
e 249 251
e 250 252
e 251 253
e 251 255
e 252 254
e 252 256
e 253 255
e 253 291
e 253 293
e 254 256
e 254 292
e 254 294
e 255 257
e 256 258
e 257 259
e 257 261
e 258 260
e 258 262
e 259 261
e 259 297
e 259 299
e 260 262
e 260 298
e 260 300
e 261 263
e 262 264
e 263 265
e 263 267
e 264 266
e 264 268
e 265 267
e 265 303
e 265 305
e 266 268
e 266 304
e 266 306
e 267 269
e 268 270
e 269 271
e 269 273
e 270 272
e 270 274
e 271 273
e 271 309
e 271 311
e 272 274
e 272 310
e 272 312
e 273 275
e 274 276
e 275 277
e 275 279
e 276 278
e 276 280
e 277 279
e 277 315
e 277 317
e 278 280
e 278 316
e 278 318
e 279 281
e 280 282
e 281 283
e 281 285
e 282 284
e 283 285
e 283 321
e 283 323
e 284 322
e 284 324
e 286 287
e 287 289
e 287 291
e 288 290
e 288 292
e 289 291
e 289 328
e 289 329
e 290 292
e 290 330
e 291 293
e 292 294
e 293 295
e 293 297
e 294 296
e 294 298
e 295 297
e 295 333
e 295 335
e 296 298
e 296 334
e 296 336
e 297 299
e 298 300
e 299 301
e 299 303
e 300 302
e 300 304
e 301 303
e 301 339
e 301 341
e 302 304
e 302 340
e 302 342
e 303 305
e 304 306
e 305 307
e 305 309
e 306 308
e 306 310
e 307 309
e 307 345
e 307 347
e 308 310
e 308 346
e 308 348
e 309 311
e 310 312
e 311 313
e 311 315
e 312 314
e 312 316
e 313 315
e 313 351
e 313 353
e 314 316
e 314 352
e 314 354
e 315 317
e 316 318
e 317 319
e 317 321
e 318 320
e 318 322
e 319 321
e 319 357
e 319 359
e 320 322
e 320 358
e 320 360
e 321 323
e 322 324
e 323 325
e 323 327
e 324 326
e 325 327
e 325 363
e 325 365
e 326 364
e 326 366
e 328 329
e 329 331
e 329 333
e 330 332
e 330 334
e 331 333
e 331 370
e 331 371
e 332 334
e 332 372
e 333 335
e 334 336
e 335 337
e 335 339
e 336 338
e 336 340
e 337 339
e 337 375
e 337 377
e 338 340
e 338 376
e 338 378
e 339 341
e 340 342
e 341 343
e 341 345
e 342 344
e 342 346
e 343 345
e 343 381
e 343 383
e 344 346
e 344 382
e 344 384
e 345 347
e 346 348
e 347 349
e 347 351
e 348 350
e 348 352
e 349 351
e 349 387
e 349 389
e 350 352
e 350 388
e 350 390
e 351 353
e 352 354
e 353 355
e 353 357
e 354 356
e 354 358
e 355 357
e 355 393
e 355 395
e 356 358
e 356 394
e 356 396
e 357 359
e 358 360
e 359 361
e 359 363
e 360 362
e 360 364
e 361 363
e 361 399
e 361 401
e 362 364
e 362 400
e 362 402
e 363 365
e 364 366
e 365 367
e 365 369
e 366 368
e 367 369
e 367 405
e 367 407
e 368 406
e 368 408
e 370 371
e 371 373
e 371 375
e 372 374
e 372 376
e 373 375
e 373 412
e 373 413
e 374 376
e 374 414
e 375 377
e 376 378
e 377 379
e 377 381
e 378 380
e 378 382
e 379 381
e 379 417
e 379 419
e 380 382
e 380 418
e 380 420
e 381 383
e 382 384
e 383 385
e 383 387
e 384 386
e 384 388
e 385 387
e 385 423
e 385 425
e 386 388
e 386 424
e 386 426
e 387 389
e 388 390
e 389 391
e 389 393
e 390 392
e 390 394
e 391 393
e 391 429
e 391 431
e 392 394
e 392 430
e 392 432
e 393 395
e 394 396
e 395 397
e 395 399
e 396 398
e 396 400
e 397 399
e 397 435
e 397 437
e 398 400
e 398 436
e 398 438
e 399 401
e 400 402
e 401 403
e 401 405
e 402 404
e 402 406
e 403 405
e 403 441
e 403 443
e 404 406
e 404 442
e 404 444
e 405 407
e 406 408
e 407 409
e 407 411
e 408 410
e 409 411
e 409 447
e 409 449
e 410 448
e 410 450
e 412 413
e 413 415
e 413 417
e 414 416
e 414 418
e 415 417
e 415 454
e 415 455
e 416 418
e 416 456
e 417 419
e 418 420
e 419 421
e 419 423
e 420 422
e 420 424
e 421 423
e 421 459
e 421 461
e 422 424
e 422 460
e 422 462
e 423 425
e 424 426
e 425 427
e 425 429
e 426 428
e 426 430
e 427 429
e 427 465
e 427 467
e 428 430
e 428 466
e 428 468
e 429 431
e 430 432
e 431 433
e 431 435
e 432 434
e 432 436
e 433 435
e 433 471
e 433 473
e 434 436
e 434 472
e 434 474
e 435 437
e 436 438
e 437 439
e 437 441
e 438 440
e 438 442
e 439 441
e 439 477
e 439 479
e 440 442
e 440 478
e 440 480
e 441 443
e 442 444
e 443 445
e 443 447
e 444 446
e 444 448
e 445 447
e 445 483
e 445 485
e 446 448
e 446 484
e 446 486
e 447 449
e 448 450
e 449 451
e 449 453
e 450 452
e 451 453
e 451 489
e 451 491
e 452 490
e 452 492
e 454 455
e 455 457
e 455 459
e 456 458
e 456 460
e 457 459
e 457 496
e 457 497
e 458 460
e 458 498
e 459 461
e 460 462
e 461 463
e 461 465
e 462 464
e 462 466
e 463 465
e 463 501
e 463 503
e 464 466
e 464 502
e 464 504
e 465 467
e 466 468
e 467 469
e 467 471
e 468 470
e 468 472
e 469 471
e 469 507
e 469 509
e 470 472
e 470 508
e 470 510
e 471 473
e 472 474
e 473 475
e 473 477
e 474 476
e 474 478
e 475 477
e 475 513
e 475 515
e 476 478
e 476 514
e 476 516
e 477 479
e 478 480
e 479 481
e 479 483
e 480 482
e 480 484
e 481 483
e 481 519
e 481 521
e 482 484
e 482 520
e 482 522
e 483 485
e 484 486
e 485 487
e 485 489
e 486 488
e 486 490
e 487 489
e 487 525
e 487 527
e 488 490
e 488 526
e 488 528
e 489 491
e 490 492
e 491 493
e 491 495
e 492 494
e 493 495
e 493 531
e 493 533
e 494 532
e 494 534
e 496 497
e 497 499
e 497 501
e 498 500
e 498 502
e 499 501
e 499 538
e 499 539
e 500 502
e 500 540
e 501 503
e 502 504
e 503 505
e 503 507
e 504 506
e 504 508
e 505 507
e 505 543
e 505 545
e 506 508
e 506 544
e 506 546
e 507 509
e 508 510
e 509 511
e 509 513
e 510 512
e 510 514
e 511 513
e 511 549
e 511 551
e 512 514
e 512 550
e 512 552
e 513 515
e 514 516
e 515 517
e 515 519
e 516 518
e 516 520
e 517 519
e 517 555
e 517 557
e 518 520
e 518 556
e 518 558
e 519 521
e 520 522
e 521 523
e 521 525
e 522 524
e 522 526
e 523 525
e 523 561
e 523 563
e 524 526
e 524 562
e 524 564
e 525 527
e 526 528
e 527 529
e 527 531
e 528 530
e 528 532
e 529 531
e 529 567
e 529 569
e 530 532
e 530 568
e 530 570
e 531 533
e 532 534
e 533 535
e 533 537
e 534 536
e 535 537
e 535 573
e 535 575
e 536 574
e 536 576
e 538 539
e 539 541
e 539 543
e 540 542
e 540 544
e 541 543
e 541 580
e 541 581
e 542 544
e 542 582
e 543 545
e 544 546
e 545 547
e 545 549
e 546 548
e 546 550
e 547 549
e 547 585
e 547 587
e 548 550
e 548 586
e 548 588
e 549 551
e 550 552
e 551 553
e 551 555
e 552 554
e 552 556
e 553 555
e 553 591
e 553 593
e 554 556
e 554 592
e 554 594
e 555 557
e 556 558
e 557 559
e 557 561
e 558 560
e 558 562
e 559 561
e 559 597
e 559 599
e 560 562
e 560 598
e 560 600
e 561 563
e 562 564
e 563 565
e 563 567
e 564 566
e 564 568
e 565 567
e 565 603
e 565 605
e 566 568
e 566 604
e 566 606
e 567 569
e 568 570
e 569 571
e 569 573
e 570 572
e 570 574
e 571 573
e 571 609
e 571 611
e 572 574
e 572 610
e 572 612
e 573 575
e 574 576
e 575 577
e 575 579
e 576 578
e 577 579
e 577 615
e 577 617
e 578 616
e 578 618
e 580 581
e 581 583
e 581 585
e 582 584
e 582 586
e 583 585
e 583 622
e 583 623
e 584 586
e 584 624
e 585 587
e 586 588
e 587 589
e 587 591
e 588 590
e 588 592
e 589 591
e 589 627
e 589 629
e 590 592
e 590 628
e 590 630
e 591 593
e 592 594
e 593 595
e 593 597
e 594 596
e 594 598
e 595 597
e 595 633
e 595 635
e 596 598
e 596 634
e 596 636
e 597 599
e 598 600
e 599 601
e 599 603
e 600 602
e 600 604
e 601 603
e 601 639
e 601 641
e 602 604
e 602 640
e 602 642
e 603 605
e 604 606
e 605 607
e 605 609
e 606 608
e 606 610
e 607 609
e 607 645
e 607 647
e 608 610
e 608 646
e 608 648
e 609 611
e 610 612
e 611 613
e 611 615
e 612 614
e 612 616
e 613 615
e 613 651
e 613 653
e 614 616
e 614 652
e 614 654
e 615 617
e 616 618
e 617 619
e 617 621
e 618 620
e 619 621
e 619 657
e 619 659
e 620 658
e 620 660
e 622 623
e 623 625
e 623 627
e 624 626
e 624 628
e 625 627
e 625 664
e 625 665
e 626 628
e 626 666
e 627 629
e 628 630
e 629 631
e 629 633
e 630 632
e 630 634
e 631 633
e 631 669
e 631 671
e 632 634
e 632 670
e 632 672
e 633 635
e 634 636
e 635 637
e 635 639
e 636 638
e 636 640
e 637 639
e 637 675
e 637 677
e 638 640
e 638 676
e 638 678
e 639 641
e 640 642
e 641 643
e 641 645
e 642 644
e 642 646
e 643 645
e 643 681
e 643 683
e 644 646
e 644 682
e 644 684
e 645 647
e 646 648
e 647 649
e 647 651
e 648 650
e 648 652
e 649 651
e 649 687
e 649 689
e 650 652
e 650 688
e 650 690
e 651 653
e 652 654
e 653 655
e 653 657
e 654 656
e 654 658
e 655 657
e 655 693
e 655 695
e 656 658
e 656 694
e 656 696
e 657 659
e 658 660
e 659 661
e 659 663
e 660 662
e 661 663
e 661 699
e 661 701
e 662 700
e 662 702
e 664 665
e 665 667
e 665 669
e 666 668
e 666 670
e 667 669
e 667 706
e 667 707
e 668 670
e 668 708
e 669 671
e 670 672
e 671 673
e 671 675
e 672 674
e 672 676
e 673 675
e 673 711
e 673 713
e 674 676
e 674 712
e 674 714
e 675 677
e 676 678
e 677 679
e 677 681
e 678 680
e 678 682
e 679 681
e 679 717
e 679 719
e 680 682
e 680 718
e 680 720
e 681 683
e 682 684
e 683 685
e 683 687
e 684 686
e 684 688
e 685 687
e 685 723
e 685 725
e 686 688
e 686 724
e 686 726
e 687 689
e 688 690
e 689 691
e 689 693
e 690 692
e 690 694
e 691 693
e 691 729
e 691 731
e 692 694
e 692 730
e 692 732
e 693 695
e 694 696
e 695 697
e 695 699
e 696 698
e 696 700
e 697 699
e 697 735
e 697 737
e 698 700
e 698 736
e 698 738
e 699 701
e 700 702
e 701 703
e 701 705
e 702 704
e 703 705
e 703 741
e 703 743
e 704 742
e 704 744
e 706 707
e 707 709
e 707 711
e 708 710
e 708 712
e 709 711
e 709 748
e 709 749
e 710 712
e 710 750
e 711 713
e 712 714
e 713 715
e 713 717
e 714 716
e 714 718
e 715 717
e 715 752
e 715 754
e 716 718
e 716 753
e 716 755
e 717 719
e 718 720
e 719 721
e 719 723
e 720 722
e 720 724
e 721 723
e 721 757
e 721 759
e 722 724
e 722 758
e 722 760
e 723 725
e 724 726
e 725 727
e 725 729
e 726 728
e 726 730
e 727 729
e 727 762
e 727 764
e 728 730
e 728 763
e 728 765
e 729 731
e 730 732
e 731 733
e 731 735
e 732 734
e 732 736
e 733 735
e 733 767
e 733 769
e 734 736
e 734 768
e 734 770
e 735 737
e 736 738
e 737 739
e 737 741
e 738 740
e 738 742
e 739 741
e 739 772
e 739 774
e 740 742
e 740 773
e 740 775
e 741 743
e 742 744
e 743 745
e 743 747
e 744 746
e 745 747
e 745 777
e 745 779
e 746 778
e 746 780
e 748 749
e 749 752
e 750 751
e 750 753
e 751 753
e 752 754
e 753 755
e 754 757
e 755 756
e 755 758
e 756 758
e 757 759
e 758 760
e 759 762
e 760 761
e 760 763
e 761 763
e 762 764
e 763 765
e 764 767
e 765 766
e 765 768
e 766 768
e 767 769
e 768 770
e 769 772
e 770 771
e 770 773
e 771 773
e 772 774
e 773 775
e 774 777
e 775 776
e 775 778
e 776 778
e 777 779
e 778 780
e 779 782
e 780 781
